************************************************************************
file with basedata            : n/a
initial value random generator: n/a
************************************************************************
projects                      :  1
jobs (incl. supersource/sink ):  122
horizon                       :  626
RESOURCES
  - renewable                 :  4   R
  - nonrenewable              :  0   N
  - doubly constrained        :  0   D
************************************************************************
PROJECT INFORMATION:
pronr.  #jobs rel.date duedate tardcost  MPM-Time
    1    120      0      103       41      103
************************************************************************
PRECEDENCE RELATIONS:
jobnr.    #modes  #successors   successors
   1        1          3           2   3   4
   2        1          3           6   9  53
   3        1          3           5   7  10
   4        1          3          33  48  63
   5        1          2           8  11
   6        1          3          14  32  39
   7        1          3          12  24  71
   8        1          3          21  22  44
   9        1          3          17  21  42
  10        1          2          49  97
  11        1          3          13  38  92
  12        1          3          18  20  25
  13        1          3          15  16  31
  14        1          3          36  37  91
  15        1          3          50  61  90
  16        1          3          23  27  34
  17        1          3          51  54 105
  18        1          3          19  28  68
  19        1          3          35  37  39
  20        1          3          32  43  77
  21        1          1         113
  22        1          1          54
  23        1          3          55  64  67
  24        1          3          42  57  74
  25        1          3          26  30  94
  26        1          3          41  52  73
  27        1          3          29  54 107
  28        1          3          61  80  94
  29        1          3          47  65  72
  30        1          3          55  64  92
  31        1          3          40  51 114
  32        1          2          49  57
  33        1          2          58  88
  34        1          3          46  60  81
  35        1          3          70  75  83
  36        1          2          71  96
  37        1          2          85 104
  38        1          3          43  56  79
  39        1          3          44  84 103
  40        1          2          76  95
  41        1          3          66  75  78
  42        1          3          48 110 119
  43        1          3          45  46  98
  44        1          2          46  48
  45        1          3          70  88  90
  46        1          2          59  62
  47        1          3          67  69  94
  48        1          1          79
  49        1          3          59  72  87
  50        1          3          74  93 107
  51        1          1          58
  52        1          2          53  92
  53        1          3          86  97 109
  54        1          2          56  62
  55        1          3          76  85  86
  56        1          3          59  66  73
  57        1          3          66  75 100
  58        1          3          70  80 109
  59        1          2          65 111
  60        1          2          61  64
  61        1          1          69
  62        1          3          65  69 102
  63        1          3          79  81  87
  64        1          2          77 101
  65        1          2          83  90
  66        1          2          76 119
  67        1          3          71  74  77
  68        1          3          72 100 103
  69        1          1         111
  70        1          2         107 113
  71        1          3          73  85 105
  72        1          1          82
  73        1          2          81  86
  74        1          2          84  95
  75        1          3          91  99 111
  76        1          1          89
  77        1          3          83  87 103
  78        1          3          80  96 101
  79        1          1         114
  80        1          2          89  95
  81        1          3          84  93 115
  82        1          3          88  98 110
  83        1          1          91
  84        1          2          89 121
  85        1          2          93 112
  86        1          1         102
  87        1          1         121
  88        1          1          96
  89        1          1         120
  90        1          2         100 106
  91        1          1         106
  92        1          2          97 115
  93        1          1          98
  94        1          1          99
  95        1          1         102
  96        1          1          99
  97        1          1         108
  98        1          2         101 113
  99        1          2         104 114
 100        1          1         117
 101        1          1         109
 102        1          2         108 110
 103        1          1         104
 104        1          2         105 115
 105        1          1         106
 106        1          1         116
 107        1          2         108 112
 108        1          1         118
 109        1          1         118
 110        1          1         118
 111        1          1         112
 112        1          2         117 120
 113        1          1         116
 114        1          1         121
 115        1          1         116
 116        1          1         117
 117        1          1         119
 118        1          1         120
 119        1          1         122
 120        1          1         122
 121        1          1         122
 122        1          0        
************************************************************************
REQUESTS/DURATIONS:
jobnr. mode duration  R 1  R 2  R 3  R 4
------------------------------------------------------------------------
  1      1     0    
  2      1     4       8   8   8   8
                       6   6   6   6
                       0   0   0   0
                       9   9   9   9
  3      1     8       0   0   0   0   0   0   0   0
                       3   3   3   3   3   3   3   3
                       8   8   8   8   8   8   8   8
                       9   9   9   9   9   9   9   9
  4      1     7       3   3   0   3   3   0   3
                       6   6   0   6   6   0   6
                       0   0   0   0   0   0   0
                       0   0   0   0   0   0   0
  5      1     4       0   0   0   0
                       7   7   7   7
                       4   4   4   4
                       0   0   0   0
  6      1     8       0   0   0   0   0   0   0   0
                       6   6   6   6   6   0   6   6
                      10  10  10  10  10   0  10  10
                       7   7   7   7   7   0   7   7
  7      1     9      10  10  10  10  10  10  10  10  10
                       8   8   8   8   8   8   8   8   8
                       7   7   7   7   7   7   7   7   7
                       6   6   6   6   6   6   6   6   6
  8      1     2      10  10
                       5   5
                       6   6
                       3   3
  9      1     9       0   0   0   0   0   0   0   0   0
                       8   8   0   8   8   8   8   8   8
                       0   0   0   0   0   0   0   0   0
                       5   5   0   5   5   5   5   5   5
 10      1     6       0   0   0   0   0   0
                       6   6   6   6   0   6
                       0   0   0   0   0   0
                       7   7   7   7   0   7
 11      1     4       9   9   9   9
                       6   6   6   6
                       4   4   4   4
                       1   1   1   1
 12      1     2      10  10
                       5   5
                       0   0
                       0   0
 13      1     9       6   6   6   6   6   6   6   6   6
                       0   0   0   0   0   0   0   0   0
                       0   0   0   0   0   0   0   0   0
                       2   2   2   2   2   2   2   2   2
 14      1     4       1   0   1   1
                       0   0   0   0
                       0   0   0   0
                      10   0  10  10
 15      1     7       7   7   7   7   7   7   7
                       8   8   8   8   8   8   8
                       9   9   9   9   9   9   9
                       7   7   7   7   7   7   7
 16      1     1       0
                       5
                       1
                       1
 17      1    10       3   3   3   3   3   3   3   3   3   3
                       0   0   0   0   0   0   0   0   0   0
                       1   1   1   1   1   1   1   1   1   1
                       7   7   7   7   7   7   7   7   7   7
 18      1     1       2
                       7
                       1
                       4
 19      1     9       6   6   6   6   6   6   6   6   6
                       0   0   0   0   0   0   0   0   0
                       4   4   4   4   4   4   4   4   4
                       1   1   1   1   1   1   1   1   1
 20      1     4       2   2   0   0
                       1   1   0   0
                       0   0   0   0
                       0   0   0   0
 21      1     2       0   0
                       1   1
                       0   0
                       7   7
 22      1     5       8   8   8   0   8
                       5   5   5   0   5
                       6   6   6   0   6
                       2   2   2   0   2
 23      1     4      10  10  10  10
                       9   9   9   9
                       3   3   3   3
                       1   1   1   1
 24      1    10       3   3   3   3   3   3   3   0   3   3
                       8   8   8   8   8   8   8   0   8   8
                      10  10  10  10  10  10  10   0  10  10
                       8   8   8   8   8   8   8   0   8   8
 25      1     2       0   0
                       8   8
                       2   2
                       9   9
 26      1     4       3   3   3   3
                       5   5   5   5
                       8   8   8   8
                       6   6   6   6
 27      1     4       4   4   4   0
                       0   0   0   0
                       7   7   7   0
                       4   4   4   0
 28      1     4       0   0   0   0
                       9   9   9   9
                       5   5   5   5
                       2   2   2   2
 29      1     5       3   3   3   3   3
                       4   4   4   4   4
                       9   9   9   9   9
                      10  10  10  10  10
 30      1     4       3   3   3   3
                       0   0   0   0
                       3   3   3   3
                       3   3   3   3
 31      1     1       2
                       3
                       1
                       1
 32      1     9       0   0   0   0   0   0   0   0   0
                       3   3   3   3   3   0   3   3   3
                       7   7   7   7   7   0   7   7   7
                       3   3   3   3   3   0   3   3   3
 33      1     8       1   1   1   1   1   0   1   1
                       3   3   3   3   3   0   3   3
                       0   0   0   0   0   0   0   0
                       4   4   4   4   4   0   4   4
 34      1     6       4   4   0   4   4   4
                       8   8   0   8   8   8
                       3   3   0   3   3   3
                       7   7   0   7   7   7
 35      1     8       2   2   2   2   2   2   2   2
                       4   4   4   4   4   4   4   4
                       7   7   7   7   7   7   7   7
                       0   0   0   0   0   0   0   0
 36      1     2       0   0
                       8   8
                      10  10
                       3   3
 37      1     8       2   2   0   0   2   0   2   2
                       1   1   0   0   1   0   1   1
                       7   7   0   0   7   0   7   7
                       0   0   0   0   0   0   0   0
 38      1     4       0   0   0   0
                       8   8   8   8
                       0   0   0   0
                       3   3   3   3
 39      1     2       0   0
                       9   0
                       0   0
                       0   0
 40      1     2       3   3
                       7   7
                       4   4
                       8   8
 41      1     5       5   5   5   5   5
                       4   4   4   4   4
                       1   1   1   1   1
                       0   0   0   0   0
 42      1     9       9   0   9   9   9   9   0   9   9
                       0   0   0   0   0   0   0   0   0
                      10   0  10  10  10  10   0  10  10
                       0   0   0   0   0   0   0   0   0
 43      1     9       6   6   6   6   6   6   6   6   6
                       4   4   4   4   4   4   4   4   4
                       3   3   3   3   3   3   3   3   3
                       3   3   3   3   3   3   3   3   3
 44      1     2       0   0
                       0   0
                       1   1
                       0   0
 45      1     1       2
                      10
                       2
                       9
 46      1     6       0   0   0   0   0   0
                      10  10  10  10  10   0
                       3   3   3   3   3   0
                       0   0   0   0   0   0
 47      1     9       0   0   0   0   0   0   0   0   0
                       0   0   0   0   0   0   0   0   0
                       0   0   0   2   0   2   2   2   0
                       0   0   0   0   0   0   0   0   0
 48      1     4      10  10  10  10
                       8   8   8   8
                       9   9   9   9
                       0   0   0   0
 49      1     6       9   9   9   9   9   9
                       4   4   4   4   4   4
                       0   0   0   0   0   0
                       0   0   0   0   0   0
 50      1     3       3   3   3
                       3   3   3
                       0   0   0
                       1   1   1
 51      1     4       0   0   0   0
                       5   5   5   5
                       5   5   5   5
                       5   5   5   5
 52      1     3       7   7   7
                      10  10  10
                       6   6   6
                       3   3   3
 53      1     2       6   6
                       4   4
                      10  10
                       9   9
 54      1     3       8   8   8
                       0   0   0
                       2   2   2
                       2   2   2
 55      1     6       3   3   3   3   3   3
                       3   3   3   3   3   3
                       4   4   4   4   4   4
                       3   3   3   3   3   3
 56      1    10       4   0   4   4   0   4   4   4   4   4
                       6   0   6   6   0   6   6   6   6   6
                       0   0   0   0   0   0   0   0   0   0
                       6   0   6   6   0   6   6   6   6   6
 57      1     6       0   0   7   7   7   0
                       0   0   7   7   7   0
                       0   0   4   4   4   0
                       0   0   0   0   0   0
 58      1     3       5   5   5
                       0   0   0
                       1   1   1
                       4   4   4
 59      1     7       8   8   8   8   8   8   8
                       8   8   8   8   8   8   8
                       8   8   8   8   8   8   8
                       9   9   9   9   9   9   9
 60      1     5       9   9   9   9   9
                       9   9   9   9   9
                       7   7   7   7   7
                       2   2   2   2   2
 61      1     4       0   0   0   0
                       9   9   9   9
                       2   2   2   2
                       7   7   7   7
 62      1     3       1   0   1
                       0   0   0
                       0   0   0
                       4   0   4
 63      1     3       4   0   4
                       0   0   0
                       8   0   8
                       1   0   1
 64      1    10       5   5   5   5   5   5   5   5   5   0
                       1   1   1   1   1   1   1   1   1   0
                       8   8   8   8   8   8   8   8   8   0
                      10  10  10  10  10  10  10  10  10   0
 65      1     6       7   7   7   7   7   7
                       0   0   0   0   0   0
                      10  10  10  10  10  10
                       0   0   0   0   0   0
 66      1     9       0   0   0   0   0   0   0   0   0
                       1   1   1   1   1   1   1   1   1
                       1   1   1   1   1   1   1   1   1
                      10  10  10  10  10  10  10  10  10
 67      1     4       0   0   0   0
                       3   3   3   3
                       6   6   6   6
                       0   0   0   0
 68      1     7       6   6   6   6   6   6   6
                       5   5   5   5   5   5   5
                       2   2   2   2   2   2   2
                       0   0   0   0   0   0   0
 69      1     2       1   0
                       0   0
                       6   0
                      10   0
 70      1     5       7   7   0   7   7
                       7   7   0   7   7
                       4   4   0   4   4
                       3   3   0   3   3
 71      1     5       8   8   8   8   8
                       9   9   9   9   9
                      10  10  10  10  10
                       0   0   0   0   0
 72      1     1       2
                       6
                       2
                       9
 73      1     4      10  10  10  10
                       3   3   3   3
                       8   8   8   8
                       0   0   0   0
 74      1     2       0   0
                       2   2
                       5   5
                      10  10
 75      1     7       3   3   3   3   3   3   3
                       4   4   4   4   4   4   4
                       9   9   9   9   9   9   9
                       2   2   2   2   2   2   2
 76      1     9       5   5   5   5   5   5   5   5   5
                       1   1   1   1   1   1   1   1   1
                       7   7   7   7   7   7   7   7   7
                       6   6   6   6   6   6   6   6   6
 77      1     2       0   0
                       4   4
                       9   9
                       0   0
 78      1     6       5   5   5   5   5   0
                       7   7   7   7   7   0
                       7   7   7   7   7   0
                       3   3   3   3   3   0
 79      1     5       3   3   3   3   3
                       3   3   3   3   3
                       2   2   2   2   2
                       5   5   5   5   5
 80      1     1       1
                       0
                       1
                       8
 81      1     9       5   0   5   0   5   5   5   5   5
                      10   0  10   0  10  10  10  10  10
                       3   0   3   0   3   3   3   3   3
                       0   0   0   0   0   0   0   0   0
 82      1    10       0   0   0   0   0   0   0   0   0   0
                       3   3   3   3   3   3   3   3   3   3
                       0   0   0   0   0   0   0   0   0   0
                       2   2   2   2   2   2   2   2   2   2
 83      1     3       3   3   3
                       0   0   0
                      10  10  10
                       7   7   7
 84      1     2       5   5
                       0   0
                       0   0
                       0   0
 85      1     1       3
                       9
                       1
                       7
 86      1     1       0
                       0
                       0
                       0
 87      1     7       0   0   0   0   0   0   0
                       3   3   3   3   3   3   3
                       9   9   9   9   9   9   9
                       8   8   8   8   8   8   8
 88      1     9       0   0   0   0   0   0   0   0   0
                       0   0   0   0   0   0   0   0   0
                       0   0   0   0   0   0   0   0   0
                       6   0   0   6   6   6   0   6   6
 89      1     2       3   3
                       9   9
                       3   3
                       0   0
 90      1     6       9   9   9   9   9   9
                       0   0   0   0   0   0
                       2   2   2   2   2   2
                       0   0   0   0   0   0
 91      1     7       0   1   1   1   1   1   1
                       0   4   4   4   4   4   4
                       0   3   3   3   3   3   3
                       0   9   9   9   9   9   9
 92      1     2       9   0
                       8   0
                       0   0
                       7   0
 93      1     4       0   0   0   0
                       0   0   0   0
                       5   5   5   5
                       0   0   0   0
 94      1     3       0   0   0
                       7   7   7
                       2   2   2
                       9   9   9
 95      1     6       6   6   6   6   6   6
                       3   3   3   3   3   3
                       6   6   6   6   6   6
                       7   7   7   7   7   7
 96      1     9       0   2   2   2   2   2   2   2   2
                       0   2   2   2   2   2   2   2   2
                       0   9   9   9   9   9   9   9   9
                       0   2   2   2   2   2   2   2   2
 97      1     9       0   0   0   0   0   0   0   0   0
                       0   0   0   0   0   0   0   0   0
                       6   6   6   6   6   0   6   6   6
                       7   7   7   7   7   0   7   7   7
 98      1     8       4   4   4   4   4   4   4   4
                       6   6   6   6   6   6   6   6
                       0   0   0   0   0   0   0   0
                       0   0   0   0   0   0   0   0
 99      1     3       0   0   0
                       2   2   2
                       2   2   2
                       5   5   5
100      1     3       5   5   5
                       9   9   9
                       0   0   0
                       5   5   5
101      1     3       1   0   1
                       5   0   5
                       3   0   3
                       6   0   6
102      1     6       2   2   2   2   2   2
                       0   0   0   0   0   0
                       8   8   8   8   8   8
                       7   7   7   7   7   7
103      1    10       9   9   9   9   9   9   9   9   9   9
                       0   0   0   0   0   0   0   0   0   0
                       0   0   0   0   0   0   0   0   0   0
                       5   5   5   5   5   5   5   5   5   5
104      1     8       9   9   9   9   9   9   9   9
                      10  10  10  10  10  10  10  10
                       2   2   2   2   2   2   2   2
                       2   2   2   2   2   2   2   2
105      1     9       4   4   4   4   4   4   4   4   4
                       6   6   6   6   6   6   6   6   6
                       2   2   2   2   2   2   2   2   2
                       0   0   0   0   0   0   0   0   0
106      1     4       5   5   5   5
                       2   2   2   2
                       5   5   5   5
                       1   1   1   1
107      1     4       1   1   1   1
                       0   0   0   0
                       7   7   7   7
                       1   1   1   1
108      1     9       0   0   0   0   0   0   0   0   0
                       1   1   1   1   1   1   1   1   0
                       0   0   0   0   0   0   0   0   0
                       7   7   7   7   7   7   7   7   0
109      1     9       4   4   4   4   4   4   4   4   4
                       1   1   1   1   1   1   1   1   1
                       1   1   1   1   1   1   1   1   1
                       1   1   1   1   1   1   1   1   1
110      1     8       6   6   6   6   6   0   0   6
                       3   3   3   3   3   0   0   3
                       3   3   3   3   3   0   0   3
                       1   1   1   1   1   0   0   1
111      1     9       0   0   0   0   0   0   0   0   0
                       0   0   0   0   0   0   0   0   0
                       3   3   3   3   3   3   3   3   0
                       0   0   0   0   0   0   0   0   0
112      1     7       3   3   3   3   3   3   3
                       7   7   7   7   7   7   7
                       0   0   0   0   0   0   0
                       5   5   5   5   5   5   5
113      1     2       0  10
                       0   4
                       0   6
                       0   0
114      1     1       9
                       2
                       7
                       4
115      1     3       3   3   3
                       1   1   1
                       0   0   0
                       7   7   7
116      1     1       4
                       2
                      10
                       2
117      1     8       2   2   2   0   2   2   2   2
                       3   3   3   0   3   3   3   3
                       0   0   0   0   0   0   0   0
                       6   6   6   0   6   6   6   6
118      1     9      10  10  10  10  10  10  10   0  10
                       0   0   0   0   0   0   0   0   0
                       7   7   7   7   7   7   7   0   7
                       0   0   0   0   0   0   0   0   0
119      1     2       6   0
                       0   0
                       4   0
                       9   0
120      1     4       9   9   9   9
                       7   7   7   7
                       7   7   7   7
                       3   3   3   3
121      1     6       0   0   0   0   0   0
                       4   4   4   4   4   4
                       3   3   3   3   3   3
                       0   0   0   0   0   0
122      1     0    
************************************************************************
RESOURCEAVAILABILITIES:
  R 1  R 2  R 3  R 4

  27  27  27  27  27  27  27  27  27  27  27  27  27  27  27  27  27  27  27  27  27  27  27  27  27  27   0  27  27  27  27  27  27  27  27  27  27  27  27  27  27   0  27   0  27  27  27  27  27  27  27  27  27  27  27  27  27  27  27  27  27  27  27  27  27  27  27  27  27  27  27  27  27  27  27   0  27  27   0  27  27  27  27  27  27  27   0  27  27  27  27  27   0   0  27  27   0  27  27  27  27  27  27  27  27  27  27  27   0  27  27   0  27  27  27  27   0  27  27  27  27   0  27  27  27  27  27  27  27  27  27  27  27  27  27  27  27  27   0  27   0  27  27  27  27  27  27  27  27   0   0  27  27  27  27  27  27  27   0  27  27  27  27   0  27  27  27  27   0  27  27  27   0  27  27  27  27  27  27  27  27   0  27  27  27   0  27  27  27  27  27  27   0  27  27  27  27  27  27  27  27  27  27   0  27  27  27  27  27  27  27  27  27  27  27  27  27  27  27  27  27  27  27  27  27  27  27  27  27  27  27  27  27  27  27   0  27  27  27  27  27  27  27  27  27  27  27  27  27  27   0  27  27  27  27  27  27  27  27  27   0  27  27  27  27  27  27  27  27   0  27  27  27  27  27  27  27  27  27  27   0  27  27  27  27  27  27  27  27  27  27  27   0  27  27  27  27  27  27  27  27  27  27  27  27  27  27  27  27  27  27  27  27  27  27  27   0   0  27  27   0  27  27  27  27  27  27  27  27  27  27  27   0  27  27  27   0  27  27  27  27  27  27  27  27  27  27  27  27  27  27  27   0  27   0  27   0  27  27  27  27  27  27  27  27  27  27  27  27  27  27   0  27   0  27  27  27  27  27  27  27  27  27  27  27  27  27  27  27  27  27  27  27  27  27  27  27  27  27  27  27   0  27  27  27  27  27   0  27  27  27  27  27  27  27   0  27  27  27  27  27   0  27   0  27  27  27  27  27  27  27  27  27  27  27  27  27  27  27  27  27  27  27   0  27  27  27  27  27   0  27  27  27  27  27  27  27  27  27  27  27  27  27  27  27  27  27  27   0  27  27  27  27  27  27   0  27  27  27  27  27  27  27  27  27  27  27  27  27  27  27   0  27  27  27  27  27  27  27  27  27  27  27  27  27  27  27  27  27  27  27  27  27  27  27  27   0  27  27  27  27  27  27  27  27  27  27  27  27  27  27  27  27  27  27  27  27  27  27  27  27  27  27  27  27  27  27  27  27  27  27  27  27  27  27  27  27  27  27  27  27  27  27   0  27  27   0   0   0  27  27  27  27  27  27  27  27  27  27  27  27   0  27  27  27  27  27  27  27  27  27   0  27  27  27  27  27  27  27  27  27  27  27  27  27  27  27  27   0  27  27  27  27  27  27  27  27  27  27  27  27  27  27  27  27  27

  28  28  28  28  28  28  28  28  28  28  28  28  28  28  28  28  28  28  28  28  28  28  28  28  28  28   0  28  28  28  28  28  28  28  28  28  28  28  28  28  28   0  28   0  28  28  28  28  28  28  28  28  28  28  28  28  28  28  28  28  28  28  28  28  28  28  28  28  28  28  28  28  28  28  28   0  28  28   0  28  28  28  28  28  28  28   0  28  28  28  28  28   0   0  28  28   0  28  28  28  28  28  28  28  28  28  28  28   0  28  28   0  28  28  28  28   0  28  28  28  28   0  28  28  28  28  28  28  28  28  28  28  28  28  28  28  28  28   0  28   0  28  28  28  28  28  28  28  28   0   0  28  28  28  28  28  28  28   0  28  28  28  28   0  28  28  28  28   0  28  28  28   0  28  28  28  28  28  28  28  28   0  28  28  28   0  28  28  28  28  28  28   0  28  28  28  28  28  28  28  28  28  28   0  28  28  28  28  28  28  28  28  28  28  28  28  28  28  28  28  28  28  28  28  28  28  28  28  28  28  28  28  28  28  28   0  28  28  28  28  28  28  28  28  28  28  28  28  28  28   0  28  28  28  28  28  28  28  28  28   0  28  28  28  28  28  28  28  28   0  28  28  28  28  28  28  28  28  28  28   0  28  28  28  28  28  28  28  28  28  28  28   0  28  28  28  28  28  28  28  28  28  28  28  28  28  28  28  28  28  28  28  28  28  28  28   0   0  28  28   0  28  28  28  28  28  28  28  28  28  28  28   0  28  28  28   0  28  28  28  28  28  28  28  28  28  28  28  28  28  28  28   0  28   0  28   0  28  28  28  28  28  28  28  28  28  28  28  28  28  28   0  28   0  28  28  28  28  28  28  28  28  28  28  28  28  28  28  28  28  28  28  28  28  28  28  28  28  28  28  28   0  28  28  28  28  28   0  28  28  28  28  28  28  28   0  28  28  28  28  28   0  28   0  28  28  28  28  28  28  28  28  28  28  28  28  28  28  28  28  28  28  28   0  28  28  28  28  28   0  28  28  28  28  28  28  28  28  28  28  28  28  28  28  28  28  28  28   0  28  28  28  28  28  28   0  28  28  28  28  28  28  28  28  28  28  28  28  28  28  28   0  28  28  28  28  28  28  28  28  28  28  28  28  28  28  28  28  28  28  28  28  28  28  28  28   0  28  28  28  28  28  28  28  28  28  28  28  28  28  28  28  28  28  28  28  28  28  28  28  28  28  28  28  28  28  28  28  28  28  28  28  28  28  28  28  28  28  28  28  28  28  28   0  28  28   0   0   0  28  28  28  28  28  28  28  28  28  28  28  28   0  28  28  28  28  28  28  28  28  28   0  28  28  28  28  28  28  28  28  28  28  28  28  28  28  28  28   0  28  28  28  28  28  28  28  28  28  28  28  28  28  28  28  28  28

  30  30  30  30  30  30  30  30  30  30  30  30  30  30  30  30  30  30  30  30  30  30  30  30  30  30   0  30  30  30  30  30  30  30  30  30  30  30  30  30  30   0  30   0  30  30  30  30  30  30  30  30  30  30  30  30  30  30  30  30  30  30  30  30  30  30  30  30  30  30  30  30  30  30  30   0  30  30   0  30  30  30  30  30  30  30   0  30  30  30  30  30   0   0  30  30   0  30  30  30  30  30  30  30  30  30  30  30   0  30  30   0  30  30  30  30   0  30  30  30  30   0  30  30  30  30  30  30  30  30  30  30  30  30  30  30  30  30   0  30   0  30  30  30  30  30  30  30  30   0   0  30  30  30  30  30  30  30   0  30  30  30  30   0  30  30  30  30   0  30  30  30   0  30  30  30  30  30  30  30  30   0  30  30  30   0  30  30  30  30  30  30   0  30  30  30  30  30  30  30  30  30  30   0  30  30  30  30  30  30  30  30  30  30  30  30  30  30  30  30  30  30  30  30  30  30  30  30  30  30  30  30  30  30  30   0  30  30  30  30  30  30  30  30  30  30  30  30  30  30   0  30  30  30  30  30  30  30  30  30   0  30  30  30  30  30  30  30  30   0  30  30  30  30  30  30  30  30  30  30   0  30  30  30  30  30  30  30  30  30  30  30   0  30  30  30  30  30  30  30  30  30  30  30  30  30  30  30  30  30  30  30  30  30  30  30   0   0  30  30   0  30  30  30  30  30  30  30  30  30  30  30   0  30  30  30   0  30  30  30  30  30  30  30  30  30  30  30  30  30  30  30   0  30   0  30   0  30  30  30  30  30  30  30  30  30  30  30  30  30  30   0  30   0  30  30  30  30  30  30  30  30  30  30  30  30  30  30  30  30  30  30  30  30  30  30  30  30  30  30  30   0  30  30  30  30  30   0  30  30  30  30  30  30  30   0  30  30  30  30  30   0  30   0  30  30  30  30  30  30  30  30  30  30  30  30  30  30  30  30  30  30  30   0  30  30  30  30  30   0  30  30  30  30  30  30  30  30  30  30  30  30  30  30  30  30  30  30   0  30  30  30  30  30  30   0  30  30  30  30  30  30  30  30  30  30  30  30  30  30  30   0  30  30  30  30  30  30  30  30  30  30  30  30  30  30  30  30  30  30  30  30  30  30  30  30   0  30  30  30  30  30  30  30  30  30  30  30  30  30  30  30  30  30  30  30  30  30  30  30  30  30  30  30  30  30  30  30  30  30  30  30  30  30  30  30  30  30  30  30  30  30  30   0  30  30   0   0   0  30  30  30  30  30  30  30  30  30  30  30  30   0  30  30  30  30  30  30  30  30  30   0  30  30  30  30  30  30  30  30  30  30  30  30  30  30  30  30   0  30  30  30  30  30  30  30  30  30  30  30  30  30  30  30  30  30

  24  24  24  24  24  24  24  24  24  24  24  24  24  24  24  24  24  24  24  24  24  24  24  24  24  24   0  24  24  24  24  24  24  24  24  24  24  24  24  24  24   0  24   0  24  24  24  24  24  24  24  24  24  24  24  24  24  24  24  24  24  24  24  24  24  24  24  24  24  24  24  24  24  24  24   0  24  24   0  24  24  24  24  24  24  24   0  24  24  24  24  24   0   0  24  24   0  24  24  24  24  24  24  24  24  24  24  24   0  24  24   0  24  24  24  24   0  24  24  24  24   0  24  24  24  24  24  24  24  24  24  24  24  24  24  24  24  24   0  24   0  24  24  24  24  24  24  24  24   0   0  24  24  24  24  24  24  24   0  24  24  24  24   0  24  24  24  24   0  24  24  24   0  24  24  24  24  24  24  24  24   0  24  24  24   0  24  24  24  24  24  24   0  24  24  24  24  24  24  24  24  24  24   0  24  24  24  24  24  24  24  24  24  24  24  24  24  24  24  24  24  24  24  24  24  24  24  24  24  24  24  24  24  24  24   0  24  24  24  24  24  24  24  24  24  24  24  24  24  24   0  24  24  24  24  24  24  24  24  24   0  24  24  24  24  24  24  24  24   0  24  24  24  24  24  24  24  24  24  24   0  24  24  24  24  24  24  24  24  24  24  24   0  24  24  24  24  24  24  24  24  24  24  24  24  24  24  24  24  24  24  24  24  24  24  24   0   0  24  24   0  24  24  24  24  24  24  24  24  24  24  24   0  24  24  24   0  24  24  24  24  24  24  24  24  24  24  24  24  24  24  24   0  24   0  24   0  24  24  24  24  24  24  24  24  24  24  24  24  24  24   0  24   0  24  24  24  24  24  24  24  24  24  24  24  24  24  24  24  24  24  24  24  24  24  24  24  24  24  24  24   0  24  24  24  24  24   0  24  24  24  24  24  24  24   0  24  24  24  24  24   0  24   0  24  24  24  24  24  24  24  24  24  24  24  24  24  24  24  24  24  24  24   0  24  24  24  24  24   0  24  24  24  24  24  24  24  24  24  24  24  24  24  24  24  24  24  24   0  24  24  24  24  24  24   0  24  24  24  24  24  24  24  24  24  24  24  24  24  24  24   0  24  24  24  24  24  24  24  24  24  24  24  24  24  24  24  24  24  24  24  24  24  24  24  24   0  24  24  24  24  24  24  24  24  24  24  24  24  24  24  24  24  24  24  24  24  24  24  24  24  24  24  24  24  24  24  24  24  24  24  24  24  24  24  24  24  24  24  24  24  24  24   0  24  24   0   0   0  24  24  24  24  24  24  24  24  24  24  24  24   0  24  24  24  24  24  24  24  24  24   0  24  24  24  24  24  24  24  24  24  24  24  24  24  24  24  24   0  24  24  24  24  24  24  24  24  24  24  24  24  24  24  24  24  24

************************************************************************
